3636.49
70 70 25 95 70 77 16 16 94 25 77 77 70 25 25 77 16 25 6 96 16 70 70 16 70 70 30 70 70 16 70 70 77 30 70 77 95 16 70 16 70 6 77 25 16 89 77 77 70 94 16 70 70 25 70 16 77 70 25 16 70 25 59 21 16 77 77 70 70 16 70 77 70 70 70 25 70 16 70 6 70 70 77 16 70 16 70 70 70 30 16 25 70 25 77 16 16 50 77 70 
